p wcnf 172 86 87 
1 126 86 0 
1 139 -163 0 
1 -9 -167 0 
1 23 22 0 
1 -66 153 0 
1 8 -10 0 
1 -127 -111 0 
1 -95 -104 0 
1 -138 158 0 
1 -69 123 0 
1 -19 120 0 
1 54 162 0 
1 -71 37 0 
1 -118 -94 0 
1 -119 64 0 
1 -38 135 0 
1 8 -94 0 
1 -171 71 0 
1 -112 167 0 
1 68 93 0 
1 43 105 0 
1 138 -5 0 
1 -36 -19 0 
1 -127 -3 0 
1 -157 89 0 
1 -111 2 0 
1 -169 148 0 
1 147 123 0 
1 -140 -33 0 
1 53 -16 0 
1 -126 25 0 
1 137 74 0 
1 -152 82 0 
1 -169 -53 0 
1 -78 -40 0 
1 8 -33 0 
1 -10 109 0 
1 -94 -60 0 
1 171 -63 0 
1 155 64 0 
1 -133 -144 0 
1 -41 111 0 
1 -50 17 0 
1 -165 45 0 
1 158 142 0 
1 136 -143 0 
1 -5 106 0 
1 -69 41 0 
1 -15 -99 0 
1 -14 -83 0 
1 100 46 0 
1 85 -103 0 
1 -31 -1 0 
1 59 -126 0 
1 33 64 0 
1 -77 34 0 
1 166 -81 0 
1 -24 -149 0 
1 148 -36 0 
1 -47 -72 0 
1 -64 78 0 
1 59 -3 0 
1 49 8 0 
1 -75 -76 0 
1 -153 -97 0 
1 -102 138 0 
1 77 -65 0 
1 4 115 0 
1 -91 -48 0 
1 162 115 0 
1 156 113 0 
1 19 167 0 
1 -13 -18 0 
1 -132 33 0 
1 -165 -120 0 
1 74 80 0 
1 68 -46 0 
1 -113 -12 0 
1 -78 160 0 
1 -98 -77 0 
1 -82 -2 0 
1 98 -138 0 
1 14 154 0 
1 -68 166 0 
1 -19 5 0 
1 -79 -152 0 
